% Data file for labor model
% set
% ShiftSet = {f4-12, f6-14, f8-16, f10-18,
%  f12-20, f14-22, f16-24};
 ShiftSet = {f412, f614, f816, f1018,
 f1220, f1422, f1624};
% TimeSet = {1, 2, 3, 4, 5, 6, 7, 8,9, 10, 11, 12, 13, 14, 15, 16, 17, 18, 19, 20, 21, 22, 23, 24};
% TemperatureSet = {1,2,3,4};


% parameters
MaxPickDelay = [5,2,2,1];

Demand= [|0,0,0,0,
            |0,0,0,0,
            |0,0,0,0,
            |0,0,0,0,
            |0,0,0,0,
            |0,0,0,0,
            |0,0,0,0,
            |0,0,0,0,
            |1.43, 0.71, 0.19,0.14,
            |1.51, 0.67, 0.16, 0.27,
            |1.47, 0.89, 0.07, 0.69,
            |1.4, 1.09, 0, 1.37,
            |0.89,0.7, 0.12, 0.82,
            |3.18, 1.59, 0.24, 0.41,
            |4.19, 2.1, 0.45, 0.96,
            |3.46, 2.33, 0.79, 2.2,
            |3.96, 2.2, 0.62, 1.92,
            |4.58, 2.9, 0.76, 3.43,
            |5.55, 3.52, 0.79, 2.06,
            |4.09, 2.8, 0.47, 1.65,
            |3.17, 2.45, 0.34, 2.06,
            |0,0,0,0,
            |0,0,0,0,
            |0,0,0,0|];

MaxInventory=[999, 999, 999, 999];

ShiftMap=[|0,0,0,1,1,1,1,1,1,1,1,0,0,0,0,0,0,0,0,0,0,0,0,0,
|0,0,0,0,0,1,1,1,1,1,1,1,1,0,0,0,0,0,0,0,0,0,0,0,
|0,0,0,0,0,0,0,1,1,1,1,1,1,1,1,0,0,0,0,0,0,0,0,0,
|0,0,0,0,0,0,0,0,0,1,1,1,1,1,1,1,1,0,0,0,0,0,0,0,
|0,0,0,0,0,0,0,0,0,0,0,1,1,1,1,1,1,1,1,0,0,0,0,0,
|0,0,0,0,0,0,0,0,0,0,0,0,0,1,1,1,1,1,1,1,1,0,0,0,
|0,0,0,0,0,0,0,0,0,0,0,0,0,0,0,1,1,1,1,1,1,1,1,0|];